c Sudoku solution
p cnf 729 0
168 0
182 0
266 0
279 0
283 0
329 0
338 0
298 0
357 0
391 0
539 0
542 0
551 0
617 0
689 0
696 0
712 0
362 0
724 0
759 0
149 0
241 0
469 0
843 0
153 0
313 0
871 0
481 0
888 0
748 0
993 0
899 0
972 0
984 0
733 0
761 0
852 0
864 0
919 0
928 0
931 0
111 0
621 0
492 0
632 0
222 0
237 0
827 0
645 0
663 0
567 0
477 0
585 0
594 0
423 0
573 0
678 0
526 0
518 0
458 0
446 0
654 0
816 0
835 0
125 0
214 0
136 0
255 0
344 0
415 0
434 0
947 0
956 0
965 0
174 0
197 0
386 0
375 0
776 0
787 0
795 0
